(set-logic QF_RDL)
(declare-fun x () Real)
(declare-fun x0 () Real)
(declare-fun x1 () Real)
(declare-fun x2 () Real)
(declare-fun x3 () Real)
(declare-fun x4 () Real)
(declare-fun x5 () Real)
(assert (let ((.def_0 (<= x x5))) (let ((.def_1 (<= x x4))) (let ((.def_2 (<= x x3))) (let ((.def_3 (<= x x2))) (let ((.def_4 (<= x x1))) (let ((.def_5 (<= x x0))) (let ((.def_6 (and false .def_5))) (let ((.def_7 (not .def_6))) (let ((.def_8 (or false .def_5))) (let ((.def_9 (and .def_8 .def_7))) (let ((.def_10 (and .def_9 .def_4))) (let ((.def_11 (not .def_10))) (let ((.def_12 (or .def_9 .def_4))) (let ((.def_13 (and .def_12 .def_11))) (let ((.def_14 (and .def_13 .def_3))) (let ((.def_15 (not .def_14))) (let ((.def_16 (or .def_13 .def_3))) (let ((.def_17 (and .def_16 .def_15))) (let ((.def_18 (and .def_17 .def_2))) (let ((.def_19 (not .def_18))) (let ((.def_20 (or .def_17 .def_2))) (let ((.def_21 (and .def_20 .def_19))) (let ((.def_22 (and .def_21 .def_1))) (let ((.def_23 (not .def_22))) (let ((.def_24 (or .def_21 .def_1))) (let ((.def_25 (and .def_24 .def_23))) (let ((.def_26 (and .def_25 .def_0))) (let ((.def_27 (not .def_26))) (let ((.def_28 (or .def_25 .def_0))) (let ((.def_29 (and .def_28 .def_27))) (let ((.def_30 (<= x5 (/ 467248461339689 562949953421312)))) (let ((.def_31 (<= (/ 3422735716801577 18014398509481984) x5))) (let ((.def_32 (<= x4 (/ 7566047373982433 9007199254740992)))) (let ((.def_33 (<= (/ 3242591731706757 18014398509481984) x4))) (let ((.def_34 (<= x3 (/ 7656119366529843 9007199254740992)))) (let ((.def_35 (<= (/ 6124895493223875 36028797018963968) x3))) (let ((.def_36 (<= x2 (/ 7746191359077253 9007199254740992)))) (let ((.def_37 (<= (/ 5764607523034235 36028797018963968) x2))) (let ((.def_38 (<= x1 (/ 7836263351624663 9007199254740992)))) (let ((.def_39 (<= (/ 5404319552844595 36028797018963968) x1))) (let ((.def_40 (<= x0 (/ 7926335344172073 9007199254740992)))) (let ((.def_41 (<= (/ 1261007895663739 9007199254740992) x0))) (let ((.def_42 (<= x (/ 8016407336719483 9007199254740992)))) (let ((.def_43 (<= (/ 1170935903116329 9007199254740992) x))) (let ((.def_44 (and true .def_43))) (let ((.def_45 (and .def_44 .def_42))) (let ((.def_46 (and .def_45 .def_41))) (let ((.def_47 (and .def_46 .def_40))) (let ((.def_48 (and .def_47 .def_39))) (let ((.def_49 (and .def_48 .def_38))) (let ((.def_50 (and .def_49 .def_37))) (let ((.def_51 (and .def_50 .def_36))) (let ((.def_52 (and .def_51 .def_35))) (let ((.def_53 (and .def_52 .def_34))) (let ((.def_54 (and .def_53 .def_33))) (let ((.def_55 (and .def_54 .def_32))) (let ((.def_56 (and .def_55 .def_31))) (let ((.def_57 (and .def_56 .def_30))) (let ((.def_58 (and .def_57 .def_29))) .def_58))))))))))))))))))))))))))))))))))))))))))))))))))))))))))))
(check-sat)
